
Gurobi 13.0.2 (win64) logging started Fri Jul 24 06:01:22 2026

Set parameter LogFile to value "E:\codes\ExactEBRP\results\gf_c0_mechanism_transfer_c5_round30\runs\stage1__V12_M2__c5_candidate__300s\external\native_logs\L2.0.1.1.0.1.1.0_terminal_mip.gurobi.log"
Gurobi Optimizer version 13.0.2 build v13.0.2rc1 (win64 - Windows 10.0 (19045.2))

CPU model: 12th Gen Intel(R) Core(TM) i7-12700KF, instruction set [SSE2|AVX|AVX2]
Thread count: 12 physical cores, 20 logical processors, using up to 1 threads

Non-default parameters:
TimeLimit  181.6181914
MIPGap  0
MIPGapAbs  0
LogToConsole  0
Threads  1

Optimize a model with 11351 rows, 1034 columns and 113600 nonzeros (Min)
Model fingerprint: 0x03cf5e34
Model has 13 linear objective coefficients
Variable types: 516 continuous, 518 integer (434 binary)
Coefficient statistics:
  Matrix range     [5e-05, 1e+05]
  Objective range  [5e-05, 1e+00]
  Bounds range     [4e-01, 3e+02]
  RHS range        [2e-01, 1e+06]

Presolve removed 1185 rows and 33 columns
Presolve time: 0.30s
Presolved: 10166 rows, 1001 columns, 136490 nonzeros
Variable types: 487 continuous, 514 integer (430 binary)
Root relaxation presolved: 10127 rows, 978 columns, 136403 nonzeros


Root relaxation: objective 6.534827e-01, 1391 iterations, 0.16 seconds (0.46 work units)

    Nodes    |    Current Node    |     Objective Bounds      |     Work
 Expl Unexpl |  Obj  Depth IntInf | Incumbent    BestBd   Gap | It/Node Time

     0     0    0.65348    0  144          -    0.65348      -     -    0s
     0     0    0.66466    0  131          -    0.66466      -     -    0s
     0     0    0.66509    0  130          -    0.66509      -     -    0s
     0     0    0.66631    0  150          -    0.66631      -     -    1s
     0     0    0.66644    0  152          -    0.66644      -     -    1s
     0     0    0.67028    0  138          -    0.67028      -     -    1s
     0     0    0.67121    0  147          -    0.67121      -     -    1s
     0     0    0.67203    0  172          -    0.67203      -     -    2s
     0     0    0.67273    0  169          -    0.67273      -     -    2s
     0     0    0.67299    0  168          -    0.67299      -     -    2s
     0     0    0.67303    0  156          -    0.67303      -     -    2s
     0     0    0.67338    0  152          -    0.67338      -     -    3s
     0     0    0.67346    0  159          -    0.67346      -     -    3s
     0     0    0.67351    0  170          -    0.67351      -     -    3s
     0     0    0.67352    0  171          -    0.67352      -     -    3s
     0     0    0.67359    0  164          -    0.67359      -     -    3s
     0     0    0.67361    0  169          -    0.67361      -     -    3s
     0     0    0.67364    0  169          -    0.67364      -     -    4s
     0     0    0.67368    0  173          -    0.67368      -     -    4s
     0     0    0.67368    0  175          -    0.67368      -     -    4s
     0     0    0.67368    0  175          -    0.67368      -     -    4s
     0     0    0.67376    0  173          -    0.67376      -     -    5s
     0     0    0.67376    0  179          -    0.67376      -     -    5s
     0     0    0.67376    0  177          -    0.67376      -     -    5s
     0     0    0.67376    0  179          -    0.67376      -     -    5s
     0     0    0.67376    0  179          -    0.67376      -     -    6s
     0     0    0.67376    0  178          -    0.67376      -     -    6s
     0     0    0.67378    0  178          -    0.67378      -     -    6s
     0     0    0.67382    0  177          -    0.67382      -     -    6s
     0     0    0.67382    0  170          -    0.67382      -     -    6s
     0     2    0.67392    0  170          -    0.67392      -     -    7s

Cutting planes:
  Learned: 6
  Cover: 23
  Implied bound: 70
  Clique: 6
  MIR: 58
  StrongCG: 4
  Flow cover: 21
  GUB cover: 4
  Zero half: 1
  Network: 6
  RLT: 8
  Relax-and-lift: 62
  BQP: 8

Explored 15 nodes (10729 simplex iterations) in 8.14 seconds (13.78 work units)
Thread count was 1 (of 20 available processors)

Solution count 0

Model is infeasible
Best objective -, best bound -, gap -

User-callback calls 3837, time in user-callback 0.00 sec
